g3 1 1 0	# problem unknown
 97 33 1 0 33 	# vars, constraints, objectives, ranges, eqns
 0 0 0 0 0 0	# nonlinear constrs, objs; ccons: lin, nonlin, nd, nzlb
 0 0	# network constraints: nonlinear, linear
 0 0 0 	# nonlinear vars in constraints, objectives, both
 0 0 0 1	# linear network variables; functions; arith, flags
 0 0 0 0 0 	# discrete variables: binary, integer, nonlinear (b,c,o)
 194 1 	# nonzeros in Jacobian, obj. gradient
 0 0	# max name lengths: constraints, variables
 0 0 0 0 0	# common exprs: b,c,o,c1,o1
C0
n0
C1
n0
C2
n0
C3
n0
C4
n0
C5
n0
C6
n0
C7
n0
C8
n0
C9
n0
C10
n0
C11
n0
C12
n0
C13
n0
C14
n0
C15
n0
C16
n0
C17
n0
C18
n0
C19
n0
C20
n0
C21
n0
C22
n0
C23
n0
C24
n0
C25
n0
C26
n0
C27
n0
C28
n0
C29
n0
C30
n0
C31
n0
C32
n0
O0 0
n0
x97
0 77.0
1 1124.52
2 158.0
3 16.0
4 0.0
5 783.65
6 11.0
7 49.0
8 2155.17
9 252.0
10 51.38
11 140.21
12 142.79
13 21.91
14 164.7
15 58.19
16 58.19
17 61.08
18 566.43
19 583.57
20 0.0
21 0.0
22 0.0
23 0.0
24 0.0
25 0.0
26 0.0
27 0.0
28 0.0
29 77.0
30 1049.53
31 158.0
32 16.0
33 0.0
34 738.43
35 11.0
36 49.0
37 1835.36
38 252.0
39 32.06
40 0.0
41 4.2
42 48.37
43 52.57
44 59.85
45 59.85
46 58.24
47 0.0
48 18.76
49 0.0
50 0.0
51 0.0
52 0.0
53 0.0
54 0.0
55 0.0
56 0.0
57 0.0
58 77.0
59 1081.87
60 158.0
61 16.0
62 0.0
63 696.71
64 11.0
65 49.0
66 1972.77
67 252.0
68 18.13
69 0.0
70 0.0
71 18.13
72 18.13
73 5.81
74 5.81
75 0.0
76 0.0
77 6.02
78 0.0
79 0.0
80 0.0
81 0.0
82 0.0
83 0.0
84 0.0
85 0.0
86 0.0
87 77.0
88 1100.0
89 158.0
90 16.0
91 0.0
92 700.0
93 11.0
94 49.0
95 2000.0
96 252.0
r
4 -51.38
4 -13.84
4 -2.58
4 -21.91
4 0.0
4 -12.97
4 0.0
4 -2.89
4 -20.84
4 -17.14
4 -32.06
4 -0.28
4 -4.2
4 -48.37
4 0.0
4 -18.13
4 0.0
4 1.61
4 -26.6
4 -18.76
4 -18.13
4 0.0
4 0.0
4 -18.13
4 0.0
4 -9.1
4 0.0
4 5.81
4 -9.1
4 -6.02
4 608.35
4 -4626.34
4 4363.0
b
0 77.0 77.01
0 1124.52 1124.53
0 158.0 158.01
0 16.0 16.01
4 0.0
0 783.65 783.66
0 11.0 11.01
0 49.0 49.01
0 2155.17 2155.18
0 252.0 252.01
0 0.0 397.84
0 0.0 222.32
0 0.0 205.63
0 0.0 205.63
0 0.0 205.63
0 0.0 124.83
0 0.0 127.01
0 0.0 61.08
0 0.0 614.84
0 0.0 778.08
0 0.0 3024.0
0 0.0 3024.0
0 0.0 3024.0
0 0.0 3024.0
0 0.0 7257.6
0 0.0 1209.6
0 0.0 907.2
0 0.0 7257.6
0 0.0 7257.6
4 77.0
0 403.4 1312.0
4 158.0
4 16.0
4 0.0
0 502.0 928.46
4 11.0
4 49.0
0 915.3 2611.6
4 252.0
0 0.0 397.84
0 0.0 222.32
0 0.0 205.63
0 0.0 205.63
0 0.0 205.63
0 0.0 124.83
0 0.0 127.01
0 0.0 61.08
0 0.0 614.84
0 0.0 778.08
0 0.0 3024.0
0 0.0 3024.0
0 0.0 3024.0
0 0.0 3024.0
0 0.0 7257.6
0 0.0 1209.6
0 0.0 907.2
0 0.0 7257.6
0 0.0 7257.6
4 77.0
0 403.4 1312.0
4 158.0
4 16.0
4 0.0
0 505.64 928.46
4 11.0
4 49.0
0 915.3 2611.6
4 252.0
0 0.0 397.84
0 0.0 222.32
0 0.0 205.63
0 0.0 205.63
0 0.0 205.63
0 0.0 124.83
0 0.0 127.01
0 0.0 61.08
0 0.0 614.84
0 0.0 778.08
0 0.0 3024.0
0 0.0 3024.0
0 0.0 3024.0
0 0.0 3024.0
0 0.0 7257.6
0 0.0 1209.6
0 0.0 907.2
0 0.0 7257.6
0 0.0 7257.6
0 77.0 77.01
0 1100.0 1100.01
0 158.0 158.01
0 16.0 16.01
4 0.0
0 700.0 700.01
0 11.0 11.01
0 49.0 49.01
0 2000.0 2000.01
0 252.0 252.01
k96
2
4
6
8
10
12
14
16
18
20
22
24
26
28
30
32
34
36
38
40
42
44
46
48
50
52
54
56
58
60
62
64
66
68
70
72
74
76
78
80
82
84
86
88
90
92
94
96
98
100
102
104
106
108
110
112
114
116
118
120
122
124
126
128
130
132
134
136
138
140
142
144
146
148
150
152
154
156
158
160
162
164
166
168
170
172
174
176
178
180
182
184
186
188
190
192
J0 4
0 1
10 -1
20 -1
29 -1
J1 6
1 1
10 1
11 -1
20 1
21 -1
30 -1
J2 6
2 1
11 1
12 -1
21 1
22 -1
31 -1
J3 4
3 1
13 -1
23 -1
32 -1
J4 5
4 1
12 1
13 1
14 -1
33 -1
J5 4
5 1
15 -1
24 -1
34 -1
J6 6
6 1
15 1
16 -1
24 1
25 -1
35 -1
J7 6
7 1
16 1
17 -1
25 1
26 -1
36 -1
J8 9
8 1
14 1
17 1
18 -1
22 1
23 1
26 1
27 -1
37 -1
J9 6
9 1
18 1
19 -1
27 1
28 -1
38 -1
J10 4
29 1
39 -1
49 -1
58 -1
J11 6
30 1
39 1
40 -1
49 1
50 -1
59 -1
J12 6
31 1
40 1
41 -1
50 1
51 -1
60 -1
J13 4
32 1
42 -1
52 -1
61 -1
J14 5
33 1
41 1
42 1
43 -1
62 -1
J15 4
34 1
44 -1
53 -1
63 -1
J16 6
35 1
44 1
45 -1
53 1
54 -1
64 -1
J17 6
36 1
45 1
46 -1
54 1
55 -1
65 -1
J18 9
37 1
43 1
46 1
47 -1
51 1
52 1
55 1
56 -1
66 -1
J19 6
38 1
47 1
48 -1
56 1
57 -1
67 -1
J20 4
58 1
68 -1
78 -1
87 -1
J21 6
59 1
68 1
69 -1
78 1
79 -1
88 -1
J22 6
60 1
69 1
70 -1
79 1
80 -1
89 -1
J23 4
61 1
71 -1
81 -1
90 -1
J24 5
62 1
70 1
71 1
72 -1
91 -1
J25 4
63 1
73 -1
82 -1
92 -1
J26 6
64 1
73 1
74 -1
82 1
83 -1
93 -1
J27 6
65 1
74 1
75 -1
83 1
84 -1
94 -1
J28 9
66 1
72 1
75 1
76 -1
80 1
81 1
84 1
85 -1
95 -1
J29 6
67 1
76 1
77 -1
85 1
86 -1
96 -1
J30 6
19 1
28 1
48 1
57 1
77 1
86 1
J31 10
0 -1
1 -1
2 -1
3 -1
4 -1
5 -1
6 -1
7 -1
8 -1
9 -1
J32 10
87 1
88 1
89 1
90 1
91 1
92 1
93 1
94 1
95 1
96 1
G0 1
0 -1
